Using license file /util/academic/gurobi/licenses/gurobi.lic
Set parameter TokenServer to value srv-m14-36.cbls.ccr.buffalo.edu
Set parameter TSPort to value 46325
Changed value of parameter lazyConstraints to 1
   Prev: 0  Min: 0  Max: 1  Default: 0
Changed value of parameter TimeLimit to 43200.0
   Prev: inf  Min: 0.0  Max: inf  Default: inf
Gurobi Optimizer version 9.1.1 build v9.1.1rc0 (linux64)
Thread count: 12 physical cores, 12 logical processors, using up to 12 threads
Optimize a model with 4000 rows, 11019 columns and 36327 nonzeros
Model fingerprint: 0x3fbcd73c
Variable types: 1183 continuous, 9836 integer (9836 binary)
Coefficient statistics:
  Matrix range     [4e-01, 1e+04]
  Objective range  [1e+00, 1e+00]
  Bounds range     [1e+00, 6e+03]
  RHS range        [1e+00, 1e+04]
Presolve removed 2054 rows and 1045 columns
Presolve time: 0.06s
Presolved: 1946 rows, 9974 columns, 30615 nonzeros
Variable types: 525 continuous, 9449 integer (9449 binary)

Root relaxation: objective -2.797379e+05, 1397 iterations, 0.03 seconds

    Nodes    |    Current Node    |     Objective Bounds      |     Work
 Expl Unexpl |  Obj  Depth IntInf | Incumbent    BestBd   Gap | It/Node Time

     0     0 -279737.94    0  445          - -279737.94      -     -    0s
     0     0 -277566.09    0  650          - -277566.09      -     -    0s
     0     0 -275346.21    0  733          - -275346.21      -     -    0s
     0     0 -275345.49    0  736          - -275345.49      -     -    0s
     0     0 -275159.17    0  734          - -275159.17      -     -    1s
     0     0 -275157.75    0  724          - -275157.75      -     -    1s
     0     0 -275157.44    0  722          - -275157.44      -     -    1s
     0     0 -275157.44    0  722          - -275157.44      -     -    1s
     0     2 -275156.80    0  722          - -275156.80      -     -    1s
  3035  3311 -268407.90  178    6          - -274826.52      -  26.4    5s
  9316  9169 -268261.69   93  690          - -274694.15      -  16.1   10s
  9328  9177 -264218.15  101  750          - -273933.49      -  16.1   15s
  9345  9197 -269678.75   16  504          - -273828.97      -  17.8   20s
 11831 10914 -262267.09  127   19          - -273712.57      -  22.0   25s
*13126 10975             165    -264366.7687 -273712.57  3.54%  23.0   27s
H13908 10500                    -264746.4387 -273357.60  3.25%  23.1   29s
 14250 10920 -267268.53  111    8 -264746.44 -273357.60  3.25%  23.2   30s
 14743 11069 infeasible  158      -264746.44 -273329.58  3.24%  23.2   35s
 16784 12348 -267492.05  108   14 -264746.44 -273305.70  3.23%  23.3   40s
H17438  6421                    -271893.3731 -273261.09  0.50%  23.3   41s
H17473  5800                    -271959.8267 -273261.09  0.48%  23.3   41s
H17518  5121                    -272597.7472 -273244.67  0.24%  23.4   41s
H17576  4746                    -272640.9745 -273244.67  0.22%  23.5   41s
H17657  4381                    -272664.0172 -273244.67  0.21%  23.6   41s
*18523  3722              64    -272669.5493 -273099.25  0.16%  24.9   43s
 19908  3213 -272735.43   31  239 -272669.55 -272999.74  0.12%  26.5   45s
H19917  2872                    -272757.3531 -272999.74  0.09%  26.5   45s
H20064  2533                    -272757.3531 -272985.19  0.08%  26.7   45s

Cutting planes:
  Gomory: 50
  Cover: 301
  MIR: 4
  Flow cover: 37
  Inf proof: 8
  Zero half: 89
  RLT: 129
  Lazy constraints: 740

Explored 21758 nodes (592864 simplex iterations) in 47.05 seconds
Thread count was 12 (of 12 available processors)

Solution count 10: -272757 -272757 -272670 ... -264367
No other solutions better than -272757

Optimal solution found (tolerance 1.00e-04)
Best objective -2.727573530963e+05, best bound -2.727573530963e+05, gap 0.0000%

User-callback calls 52031, time in user-callback 1.23 sec
-1
Leader's objective: 272757
Customers decisions:
Customer 1 - Obj: 151.376   part1: 151.376   part2: 5.06847e-13
1, 9: 1 772.666 621.29
0, 9: 0 -
63, 9: 0 772.666 480.555 683.419
64, 9: 0 772.666 502.629 683.419
65, 9: 0 772.666 603.5 683.419
Customer 2 - Obj: 151.376   part1: 151.376   part2: 4.11231e-12
2, 6: 1 2331.17 2179.8
0, 6: 0 -
63, 6: 0 2331.17 792.308 2397.78
64, 6: 0 2331.17 829.487 2397.78
65, 6: 0 2331.17 999.337 2397.78
Customer 3 - Obj: 151.376   part1: 151.376   part2: 4.08155e-12
3, 6: 1 2331.17 2179.8
0, 6: 0 -
63, 6: 0 2331.17 532.802 2397.78
64, 6: 0 2331.17 613.781 2397.78
65, 6: 0 2331.17 983.722 2397.78
Customer 4 - Obj: 151.376   part1: 151.376   part2: 4.54503e-11
4, 8: 1 8678.31 8526.93
0, 8: 0 -
63, 8: 0 8678.31 251.617 9379.62
64, 8: 0 8678.31 148.875 9379.62
65, 8: 0 8678.31 144.4 9379.62
Customer 5 - Obj: 151.376   part1: 176.548   part2: 25.1726
5, 5: 0 6816.69 6665.31
0, 5: 0 -
63, 5: 0 6816.69 39.3213 7331.84
64, 5: 0 6816.69 22.0415 7331.84
65, 5: 1 6816.69 25.1726 6640.14
Customer 6 - Obj: 151.376   part1: 158.589   part2: 7.2136
6, 7: 0 4659.51 4508.14
0, 7: 0 -
63, 7: 0 4659.51 161.055 4958.95
64, 7: 0 4659.51 109.852 4958.95
65, 7: 1 4659.51 7.2136 4500.92
Customer 7 - Obj: 71.018   part1: 162.433   part2: 91.4152
7, 8: 0 8678.31 8526.93
0, 8: 0 -
63, 8: 0 8678.31 125.866 9379.62
64, 8: 1 8678.31 91.4152 8515.87
65, 8: 0 8678.31 178.725 8348.2
Customer 8 - Obj: 151.376   part1: 253.032   part2: 101.656
8, 2: 0 3291.48 3140.11
0, 2: 0 -
63, 2: 0 3291.48 133.034 3454.12
64, 2: 1 3291.48 101.656 3038.45
65, 2: 0 3291.48 130.739 3454.12
Customer 9 - Obj: 151.376   part1: 200.769   part2: 49.3934
9, 0: 0 6331.72 6180.34
0, 0: 0 -
63, 0: 0 6331.72 65.2833 6798.38
64, 0: 1 6331.72 49.3934 6130.95
65, 0: 0 6331.72 89.6678 6090.67
Customer 10 - Obj: 151.376   part1: 151.376   part2: 4.69007e-12
10, 3: 1 1132.6 981.225
0, 3: 0 -
63, 3: 0 1132.6 222.339 1079.35
64, 3: 0 1132.6 154.477 1079.35
65, 3: 0 1132.6 8.0592 1079.35
Customer 11 - Obj: 151.376   part1: 207.788   part2: 56.4125
11, 2: 0 3291.48 3140.11
0, 2: 0 -
63, 2: 0 3291.48 294.06 3454.12
64, 2: 0 3291.48 218.798 3454.12
65, 2: 1 3291.48 56.4125 3083.69
Customer 12 - Obj: 71.018   part1: 245.858   part2: 174.84
12, 8: 0 8678.31 8526.93
0, 8: 0 -
63, 8: 0 8678.31 767.861 9379.62
64, 8: 0 8678.31 636.893 9379.62
65, 8: 1 8678.31 174.84 8432.45
Customer 13 - Obj: 151.376   part1: 151.376   part2: 4.83308e-13
13, 9: 1 772.666 621.29
0, 9: 0 -
63, 9: 0 772.666 2321.74 683.419
64, 9: 0 772.666 2115.17 683.419
65, 9: 0 772.666 1719.23 683.419
Customer 14 - Obj: 151.376   part1: 151.376   part2: 2.9997e-11
14, 0: 1 6331.72 6180.34
0, 0: 0 -
63, 0: 0 6331.72 1012.89 6798.38
64, 0: 0 6331.72 896.315 6798.38
65, 0: 0 6331.72 712.49 6798.38
Customer 15 - Obj: 151.376   part1: 151.376   part2: 1.54648e-11
15, 4: 1 3370.61 3219.23
0, 4: 0 -
63, 4: 0 3370.61 1220.55 3541.15
64, 4: 0 3370.61 1123.16 3541.15
65, 4: 0 3370.61 969.578 3541.15
Customer 16 - Obj: 151.376   part1: 151.376   part2: 1.58832e-11
16, 8: 1 8678.31 8526.93
0, 8: 0 -
63, 8: 0 8678.31 3064.27 9379.62
64, 8: 0 8678.31 2826.68 9379.62
65, 8: 0 8678.31 2452.03 9379.62
Customer 17 - Obj: 151.376   part1: 151.376   part2: 1.54667e-11
17, 1: 1 8355.3 8203.92
0, 1: 0 -
63, 1: 0 8355.3 7064.92 9024.31
64, 1: 0 8355.3 6753.94 9024.31
65, 1: 0 8355.3 5840.13 9024.31
Customer 18 - Obj: 151.376   part1: 151.376   part2: 7.72811e-12
18, 7: 1 4659.51 4508.14
0, 7: 0 -
63, 7: 0 4659.51 3724.87 4958.95
64, 7: 0 4659.51 3564.78 4958.95
65, 7: 0 4659.51 3094.4 4958.95
Customer 19 - Obj: 151.376   part1: 151.376   part2: 3.09456e-11
19, 1: 1 8355.3 8203.92
0, 1: 0 -
63, 1: 0 8355.3 2042 9024.31
64, 1: 0 8355.3 2138.39 9024.31
65, 1: 0 8355.3 2578.71 9024.31
Customer 20 - Obj: 151.376   part1: 151.376   part2: 7.74358e-12
20, 4: 1 3370.61 3219.23
0, 4: 0 -
63, 4: 0 3370.61 3361.35 3541.15
64, 4: 0 3370.61 3528.66 3541.15
65, 4: 0 3370.61 4293.26 3541.15
Customer 21 - Obj: -4981.47   part1: 151.376   part2: 5132.85
21, 8: 0 8678.31 8526.93
0, 8: 0 -
63, 8: 0 8678.31 56.6488 9379.62
64, 8: 0 8678.31 54.8867 6389.57
65, 8: 1 8678.31 64.126 8526.93
Customer 22 - Obj: 151.376   part1: 151.376   part2: 2.31293e-12
22, 3: 1 1132.6 981.225
0, 3: 0 -
63, 3: 0 1132.6 2380.92 1079.35
64, 3: 0 1132.6 2197.81 1079.35
65, 3: 0 1132.6 1923.81 1079.35
Customer 23 - Obj: 151.376   part1: 151.376   part2: 2.32185e-12
23, 3: 1 1132.6 981.225
0, 3: 0 -
63, 3: 0 1132.6 314.487 1079.35
64, 3: 0 1132.6 286.054 1079.35
65, 3: 0 1132.6 358.12 1079.35
Customer 24 - Obj: 151.376   part1: 151.376   part2: 7.70595e-12
24, 2: 1 3291.48 3140.11
0, 2: 0 -
63, 2: 0 3291.48 907.308 3454.12
64, 2: 0 3291.48 850.588 3454.12
65, 2: 0 3291.48 597.433 3454.12
Customer 25 - Obj: 151.376   part1: 151.376   part2: 7.7352e-12
25, 7: 1 4659.51 4508.14
0, 7: 0 -
63, 7: 0 4659.51 2194.41 4958.95
64, 7: 0 4659.51 2054.47 4958.95
65, 7: 0 4659.51 1526.47 4958.95
Customer 26 - Obj: 151.376   part1: 151.376   part2: 7.71107e-12
26, 2: 1 3291.48 3140.11
0, 2: 0 -
63, 2: 0 3291.48 1683.76 3454.12
64, 2: 0 3291.48 1572.82 3454.12
65, 2: 0 3291.48 1473.29 3454.12
Customer 27 - Obj: 151.376   part1: 151.376   part2: 5.06639e-13
27, 9: 1 772.666 621.29
0, 9: 0 -
63, 9: 0 772.666 240.179 683.419
64, 9: 0 772.666 226.2 683.419
65, 9: 0 772.666 173.456 683.419
Customer 28 - Obj: 151.376   part1: 151.376   part2: 7.70856e-12
28, 4: 1 3370.61 3219.23
0, 4: 0 -
63, 4: 0 3370.61 1922.01 3541.15
64, 4: 0 3370.61 1827.58 3541.15
65, 4: 0 3370.61 1442.16 3541.15
Customer 29 - Obj: 151.376   part1: 151.376   part2: 0
29, 4: 1 3370.61 3219.23
0, 4: 0 -
63, 4: 0 3370.61 132.574 3541.15
64, 4: 0 3370.61 126.27 3541.15
65, 4: 0 3370.61 100.542 3541.15
Customer 30 - Obj: 151.376   part1: 151.376   part2: 1.50204e-11
30, 5: 1 6816.69 6665.31
0, 5: 0 -
63, 5: 0 6816.69 1019.15 7331.84
64, 5: 0 6816.69 980.347 7331.84
65, 5: 0 6816.69 841.732 7331.84
Customer 31 - Obj: 151.376   part1: 151.376   part2: 1.49891e-11
31, 5: 1 6816.69 6665.31
0, 5: 0 -
63, 5: 0 6816.69 5894.01 7331.84
64, 5: 0 6816.69 5321.52 7331.84
65, 5: 0 6816.69 3341.73 7331.84
Customer 32 - Obj: 151.376   part1: 151.376   part2: 1.49761e-11
32, 5: 1 6816.69 6665.31
0, 5: 0 -
63, 5: 0 6816.69 1969.24 7331.84
64, 5: 0 6816.69 1778.58 7331.84
65, 5: 0 6816.69 1133.24 7331.84
Customer 33 - Obj: 151.376   part1: 151.376   part2: 1.50245e-11
33, 5: 1 6816.69 6665.31
0, 5: 0 -
63, 5: 0 6816.69 3645.22 7331.84
64, 5: 0 6816.69 3514.72 7331.84
65, 5: 0 6816.69 3131.31 7331.84
Customer 34 - Obj: 151.376   part1: 151.376   part2: 0
34, 9: 1 772.666 621.29
0, 9: 0 -
63, 9: 0 772.666 5306.39 683.419
64, 9: 0 772.666 5120.81 683.419
65, 9: 0 772.666 4575.56 683.419
Customer 35 - Obj: 151.376   part1: 151.376   part2: 1.5885e-11
35, 8: 1 8678.31 8526.93
0, 8: 0 -
63, 8: 0 8678.31 2961.53 9379.62
64, 8: 0 8678.31 3064.46 9379.62
65, 8: 0 8678.31 3534.8 9379.62
Customer 36 - Obj: 151.376   part1: 151.376   part2: 7.73243e-12
36, 7: 1 4659.51 4508.14
0, 7: 0 -
63, 7: 0 4659.51 2521.18 4958.95
64, 7: 0 4659.51 2606.65 4958.95
65, 7: 0 4659.51 2997.11 4958.95
Customer 37 - Obj: 151.376   part1: 165.009   part2: 13.6328
37, 7: 0 4659.51 4508.14
0, 7: 0 -
63, 7: 0 4659.51 13.2041 4958.95
64, 7: 1 4659.51 13.6328 4494.5
65, 7: 0 4659.51 15.5913 4492.55
Customer 38 - Obj: 151.376   part1: 151.376   part2: 4.08993e-12
38, 6: 1 2331.17 2179.8
0, 6: 0 -
63, 6: 0 2331.17 1009.28 2397.78
64, 6: 0 2331.17 1041.88 2397.78
65, 6: 0 2331.17 1190.81 2397.78
Customer 39 - Obj: 151.376   part1: 151.376   part2: 2.32008e-12
39, 3: 1 1132.6 981.225
0, 3: 0 -
63, 3: 0 1132.6 1238.37 1079.35
64, 3: 0 1132.6 1078.12 1079.35
65, 3: 0 1132.6 1216.59 1079.35
Customer 40 - Obj: 151.376   part1: 151.376   part2: 1.00991e-12
40, 9: 1 772.666 621.29
0, 9: 0 -
63, 9: 0 772.666 68.9125 683.419
64, 9: 0 772.666 72.2457 683.419
65, 9: 0 772.666 84.9562 683.419
Customer 41 - Obj: 151.376   part1: 151.376   part2: 1.54512e-11
41, 4: 1 3370.61 3219.23
0, 4: 0 -
63, 4: 0 3370.61 973.231 3541.15
64, 4: 0 3370.61 1018.73 3541.15
65, 4: 0 3370.61 1192.29 3541.15
Customer 42 - Obj: 151.376   part1: 151.376   part2: 7.71742e-12
42, 2: 1 3291.48 3140.11
0, 2: 0 -
63, 2: 0 3291.48 1866.1 3454.12
64, 2: 0 3291.48 1546.37 3454.12
65, 2: 0 3291.48 1398.81 3454.12
Customer 43 - Obj: 151.376   part1: 151.376   part2: 1.57155e-11
43, 8: 1 8678.31 8526.93
0, 8: 0 -
63, 8: 0 8678.31 4972.2 9379.62
64, 8: 0 8678.31 3796.09 9379.62
65, 8: 0 8678.31 3584.64 9379.62
Customer 44 - Obj: 151.376   part1: 151.376   part2: 1.54601e-11
44, 1: 1 8355.3 8203.92
0, 1: 0 -
63, 1: 0 8355.3 7749.69 9024.31
64, 1: 0 8355.3 6778.03 9024.31
65, 1: 0 8355.3 5788.72 9024.31
Customer 45 - Obj: 151.376   part1: 151.376   part2: 0
45, 8: 1 8678.31 8526.93
0, 8: 0 -
63, 8: 0 8678.31 367.337 9379.62
64, 8: 0 8678.31 320.487 9379.62
65, 8: 0 8678.31 303.615 9379.62
Customer 46 - Obj: 151.376   part1: 151.376   part2: 4.0863e-12
46, 6: 1 2331.17 2179.8
0, 6: 0 -
63, 6: 0 2331.17 747.332 2397.78
64, 6: 0 2331.17 657.85 2397.78
65, 6: 0 2331.17 625.625 2397.78
Customer 47 - Obj: 151.376   part1: 151.376   part2: 3.0913e-11
47, 1: 1 8355.3 8203.92
0, 1: 0 -
63, 1: 0 8355.3 2877.93 9024.31
64, 1: 0 8355.3 2510.21 9024.31
65, 1: 0 8355.3 2377.79 9024.31
Customer 48 - Obj: 151.376   part1: 151.376   part2: 3.0004e-11
48, 0: 1 6331.72 6180.34
0, 0: 0 -
63, 0: 0 6331.72 375.873 6798.38
64, 0: 0 6331.72 327.321 6798.38
65, 0: 0 6331.72 309.837 6798.38
Customer 49 - Obj: 151.376   part1: 151.376   part2: 1.54661e-11
49, 4: 1 3370.61 3219.23
0, 4: 0 -
63, 4: 0 3370.61 674.605 3541.15
64, 4: 0 3370.61 587.928 3541.15
65, 4: 0 3370.61 556.714 3541.15
Customer 50 - Obj: 151.376   part1: 151.376   part2: 1.50223e-11
50, 0: 1 6331.72 6180.34
0, 0: 0 -
63, 0: 0 6331.72 2322.9 6798.38
64, 0: 0 6331.72 2030.68 6798.38
65, 0: 0 6331.72 1925.45 6798.38
Customer 51 - Obj: 151.376   part1: 151.376   part2: 3.09107e-11
51, 1: 1 8355.3 8203.92
0, 1: 0 -
63, 1: 0 8355.3 503.47 9024.31
64, 1: 0 8355.3 440.009 9024.31
65, 1: 0 8355.3 417.155 9024.31
Customer 52 - Obj: 151.376   part1: 151.376   part2: 1.50107e-11
52, 5: 1 6816.69 6665.31
0, 5: 0 -
63, 5: 0 6816.69 4208.71 7331.84
64, 5: 0 6816.69 3687.95 7331.84
65, 5: 0 6816.69 3500.41 7331.84
Customer 53 - Obj: 151.376   part1: 151.376   part2: 0
53, 9: 1 772.666 621.29
0, 9: 0 -
63, 9: 0 772.666 8687.47 683.419
64, 9: 0 772.666 8023.05 683.419
65, 9: 0 772.666 7026.5 683.419
Customer 54 - Obj: 151.376   part1: 151.376   part2: 1.54716e-11
54, 4: 1 3370.61 3219.23
0, 4: 0 -
63, 4: 0 3370.61 112.384 3541.15
64, 4: 0 3370.61 100.681 3541.15
65, 4: 0 3370.61 96.4669 3541.15
Customer 55 - Obj: 151.376   part1: 151.376   part2: 3.19591e-11
55, 8: 1 8678.31 8526.93
0, 8: 0 -
63, 8: 0 8678.31 2465.62 9379.62
64, 8: 0 8678.31 2205.75 9379.62
65, 8: 0 8678.31 2112.17 9379.62
Customer 56 - Obj: 151.376   part1: 151.376   part2: 0
56, 9: 1 772.666 621.29
0, 9: 0 -
63, 9: 0 772.666 5402.07 683.419
64, 9: 0 772.666 4857.4 683.419
65, 9: 0 772.666 5212.3 683.419
Customer 57 - Obj: 151.376   part1: 151.376   part2: 1.55771e-11
57, 8: 1 8678.31 8526.93
0, 8: 0 -
63, 8: 0 8678.31 12471.6 9379.62
64, 8: 0 8678.31 11209.5 9379.62
65, 8: 0 8678.31 12031.9 9379.62
Customer 58 - Obj: 151.376   part1: 151.376   part2: 4.10439e-12
58, 6: 1 2331.17 2179.8
0, 6: 0 -
63, 6: 0 2331.17 1258.52 2397.78
64, 6: 0 2331.17 1149 2397.78
65, 6: 0 2331.17 1129 2397.78
Customer 59 - Obj: 151.376   part1: 151.376   part2: 1.54546e-11
59, 4: 1 3370.61 3219.23
0, 4: 0 -
63, 4: 0 3370.61 745.393 3541.15
64, 4: 0 3370.61 682.107 3541.15
65, 4: 0 3370.61 670.548 3541.15
Customer 60 - Obj: 151.376   part1: 151.376   part2: 1.49929e-11
60, 5: 1 6816.69 6665.31
0, 5: 0 -
63, 5: 0 6816.69 7929.21 7331.84
64, 5: 0 6816.69 7214.09 7331.84
65, 5: 0 6816.69 6825.75 7331.84
Customer 61 - Obj: 151.376   part1: 151.376   part2: 7.72508e-12
61, 2: 1 3291.48 3140.11
0, 2: 0 -
63, 2: 0 3291.48 9515.4 3454.12
64, 2: 0 3291.48 8695.85 3454.12
65, 2: 0 3291.48 8252.35 3454.12
Customer 62 - Obj: 151.376   part1: 151.376   part2: 0
62, 4: 1 3370.61 3219.23
0, 4: 0 -
63, 4: 0 3370.61 881.783 3541.15
64, 4: 0 3370.61 806.598 3541.15
65, 4: 0 3370.61 773.112 3541.15
Routing:
2, 1, 0
3, 1, 0
4, 0, 0
10, 0, 1
14, 0, 0
14, 13, 0
15, 13, 0
16, 15, 0
18, 17, 0
19, 2, 0
20, 19, 0
23, 22, 0
25, 24, 0
26, 22, 0
27, 25, 0
28, 24, 0
29, 28, 0
30, 16, 0
31, 30, 0
32, 17, 0
32, 31, 0
33, 18, 0
34, 33, 0
35, 20, 0
36, 35, 0
39, 36, 0
39, 38, 0
40, 23, 0
41, 38, 0
41, 40, 0
42, 26, 0
42, 27, 0
43, 29, 0
44, 43, 0
45, 44, 0
47, 46, 0
48, 45, 0
50, 47, 0
50, 49, 0
51, 49, 0
52, 48, 0
52, 51, 0
53, 34, 0
54, 46, 0
55, 54, 0
56, 55, 0
57, 56, 0
58, 53, 0
59, 58, 0
60, 59, 0
61, 57, 0
62, 60, 0
62, 61, 0
64, 3, 0
64, 4, 0
65, 0, 1
65, 10, 1
Routing cost: 14078.4
[272757.35309630475, 14078.379960181253, 47.05716800689697, 0.0, 1, 359.02089777177525, 0.14516129032258066, 0.14516129032258066, 0.14516129032258066]
